(set-option :produce-models true); benchmark generated from python API
(set-info :status unknown)
(declare-fun l_1_0_6 () Real)
(declare-fun l_1_0_5 () Real)
(declare-fun l_1_0_9 () Real)
(declare-fun l_1_0_10 () Real)
(declare-fun l_1_0_1 () Real)
(declare-fun _a_0_ () Real)
(declare-fun l_1_0_3 () Real)
(declare-fun l_1_0_11 () Real)
(declare-fun _a_1_ () Real)
(declare-fun l_1_0_8 () Real)
(declare-fun l_1_0_7 () Real)
(declare-fun l_1_0_4 () Real)
(declare-fun l_1_0_2 () Real)
(declare-fun l_1_1_9 () Real)
(declare-fun l_1_1_8 () Real)
(declare-fun l_1_1_7 () Real)
(declare-fun l_1_1_6 () Real)
(declare-fun l_1_1_5 () Real)
(declare-fun l_1_1_4 () Real)
(declare-fun l_1_1_3 () Real)
(declare-fun l_1_1_2 () Real)
(declare-fun l_1_1_15 () Real)
(declare-fun l_1_1_14 () Real)
(declare-fun l_1_1_13 () Real)
(declare-fun l_1_1_12 () Real)
(declare-fun l_1_1_11 () Real)
(declare-fun l_1_1_10 () Real)
(declare-fun l_1_1_1 () Real)
(declare-fun l_1_1_17 () Real)
(declare-fun l_1_1_16 () Real)
(declare-fun l_1_2_9 () Real)
(declare-fun l_1_2_5 () Real)
(declare-fun l_1_2_4 () Real)
(declare-fun l_1_2_16 () Real)
(declare-fun l_1_2_15 () Real)
(declare-fun l_1_2_13 () Real)
(declare-fun l_1_2_12 () Real)
(declare-fun l_1_2_10 () Real)
(declare-fun l_1_2_8 () Real)
(declare-fun l_1_2_6 () Real)
(declare-fun l_1_2_3 () Real)
(declare-fun l_1_2_1 () Real)
(declare-fun l_1_2_17 () Real)
(declare-fun l_1_2_7 () Real)
(declare-fun l_1_2_2 () Real)
(declare-fun l_1_2_14 () Real)
(declare-fun l_1_2_11 () Real)
(assert
 (let ((?x27 (- (- _a_0_ (* 1.0 l_1_0_1)) (* (* 2.0 l_1_0_10) l_1_0_9))))
 (= (- (- ?x27 (* 1.0 l_1_0_5)) (* 1.0 l_1_0_6)) 0.0)))
(assert
 (let ((?x435 (* l_1_0_11 l_1_0_11)))
 (let ((?x437 (- (- (- (+ _a_1_ l_1_0_1) (* l_1_0_10 l_1_0_10)) ?x435) (* 1.0 l_1_0_3))))
 (= (+ (+ ?x437 l_1_0_5) l_1_0_6) 0.0))))
(assert
 (let ((?x365 (* l_1_0_9 l_1_0_9)))
 (let ((?x367 (+ (- (- (- (- (- l_1_0_2) l_1_0_4) l_1_0_7) l_1_0_8) ?x365) 1.0)))
 (= ?x367 0.0))))
(assert
 (= (* 2.0 l_1_0_3) 0.0))
(assert
 (= (- l_1_0_3) 0.0))
(assert
 (>= l_1_0_1 0.0))
(assert
 (>= l_1_0_2 0.0))
(assert
 (>= l_1_0_3 0.0))
(assert
 (>= l_1_0_4 0.0))
(assert
 (>= l_1_0_5 0.0))
(assert
 (>= l_1_0_6 0.0))
(assert
 (>= l_1_0_7 0.0))
(assert
 (>= l_1_0_8 0.0))
(assert
 (>= l_1_0_9 0.0))
(assert
 (>= l_1_0_11 0.0))
(assert
 (let ((?x13 (* (/ 2601.0 10000.0) l_1_1_4)))
 (let ((?x298 (* (/ 51.0 100.0) l_1_1_3)))
 (let ((?x18 (* l_1_1_15 l_1_1_15)))
 (let ((?x301 (* (/ 51.0 100.0) l_1_1_13)))
 (let ((?x317 (* (/ 51.0 100.0) l_1_1_11)))
 (let ((?x21 (- (+ (- (* (/ 51.0 100.0) l_1_1_1) (* 1.0 l_1_1_10)) ?x317) (* 1.0 l_1_1_12))))
 (let ((?x296 (- (+ (- (- (- (+ ?x21 ?x301) l_1_1_14) ?x18) l_1_1_2) ?x298) ?x13)))
 (let ((?x17 (- (- (- (- ?x296 (* 1.0 l_1_1_5)) l_1_1_6) l_1_1_7) (* 1.0 l_1_1_8))))
 (= (+ (+ ?x17 (* (/ 51.0 100.0) l_1_1_9)) (/ 3.0 2.0)) 0.0))))))))))
(assert
 (let ((?x12 (* (/ 47.0 50.0) l_1_1_4)))
 (let ((?x128 (* l_1_1_17 l_1_1_17)))
 (let ((?x126 (* l_1_1_16 l_1_1_16)))
 (let ((?x159 (* _a_1_ l_1_1_8)))
 (let ((?x168 (- (- (- (* (- _a_1_) l_1_1_10) (* _a_1_ l_1_1_12)) ?x159) (* l_1_1_1 (+ (- (* (- (/ 7.0 5.0)) _a_0_) (* (/ 51.0 100.0) _a_1_)) 1.0)))))
 (let ((?x125 (- (- ?x168 l_1_1_11) (* l_1_1_13 (+ (- (* (- (/ 7.0 5.0)) _a_0_) (* (/ 51.0 100.0) _a_1_)) 1.0)))))
 (let ((?x7 (- (- (- (- (- ?x125 ?x126) ?x128) l_1_1_3) ?x12) (* l_1_1_5 (+ (* _a_0_ _a_0_) (* 2.0 _a_1_))))))
 (= (- (- ?x7 l_1_1_9) 1.0) 0.0)))))))))
(assert
 (let ((?x456 (* (/ 7.0 5.0) l_1_1_9)))
 (let ((?x459 (* (/ 357.0 250.0) l_1_1_4)))
 (let ((?x392 (* (/ 7.0 5.0) l_1_1_3)))
 (let ((?x286 (* (/ 7.0 5.0) l_1_1_11)))
 (let ((?x339 (* _a_0_ l_1_1_8)))
 (let ((?x345 (- (- (* (- _a_0_) l_1_1_10) (* _a_0_ l_1_1_12)) (* (* 2.0 _a_0_) l_1_1_5))))
 (let ((?x293 (+ (- (- ?x345 ?x339) (* l_1_1_1 (- (* (- (/ 51.0 100.0)) _a_0_) (/ 7.0 5.0)))) ?x286)))
 (let ((?x241 (- (- ?x293 (* l_1_1_13 (- (* (- (/ 51.0 100.0)) _a_0_) (/ 7.0 5.0)))) (* (* 2.0 l_1_1_15) l_1_1_16))))
 (= (+ (+ (- (+ ?x241 ?x392) ?x459) ?x456) (/ 1.0 2.0)) 0.0))))))))))
(assert
 (let ((?x272 (- (* (* (* (- 2.0) _a_0_) _a_1_) l_1_1_5) (* l_1_1_1 (- _a_0_ (* (/ 7.0 5.0) _a_1_))))))
 (let ((?x507 (+ (- ?x272 (* l_1_1_13 (- _a_0_ (* (/ 7.0 5.0) _a_1_)))) (* (/ 14.0 5.0) l_1_1_4))))
 (= ?x507 0.0))))
(assert
 (let ((?x44 (- (- (- (* (- _a_1_) l_1_1_1) (* _a_1_ l_1_1_13)) l_1_1_4) (* (* l_1_1_5 _a_1_) _a_1_))))
 (= ?x44 0.0)))
(assert
 (>= l_1_1_1 0.0))
(assert
 (>= l_1_1_2 0.0))
(assert
 (>= l_1_1_3 0.0))
(assert
 (>= l_1_1_4 0.0))
(assert
 (>= l_1_1_5 0.0))
(assert
 (>= l_1_1_6 0.0))
(assert
 (>= l_1_1_7 0.0))
(assert
 (>= l_1_1_8 0.0))
(assert
 (>= l_1_1_9 0.0))
(assert
 (>= l_1_1_10 0.0))
(assert
 (>= l_1_1_11 0.0))
(assert
 (>= l_1_1_12 0.0))
(assert
 (>= l_1_1_13 0.0))
(assert
 (>= l_1_1_14 0.0))
(assert
 (>= l_1_1_15 0.0))
(assert
 (>= l_1_1_17 0.0))
(assert
 (let ((?x568 (* (/ 357.0 250.0) l_1_2_9)))
 (let ((?x566 (* (/ 7.0 5.0) l_1_2_5)))
 (let ((?x559 (* (/ 7.0 5.0) l_1_2_13)))
 (let ((?x553 (* (/ 7.0 5.0) l_1_2_10)))
 (let ((?x551 (* (/ 8.0 5.0) _a_0_)))
 (let ((?x548 (* _a_0_ l_1_2_8)))
 (let ((?x546 (* _a_0_ l_1_2_6)))
 (let ((?x547 (- (- (* (- _a_0_) l_1_2_1) (* (* 2.0 _a_0_) l_1_2_3)) ?x546)))
 (let ((?x558 (- (- (- (- ?x547 ?x548) ?x551) ?x553) (* l_1_2_12 (+ (* (/ 51.0 100.0) _a_0_) (/ 7.0 5.0))))))
 (let ((?x565 (- (- (- ?x558 ?x559) (* (* 2.0 l_1_2_15) l_1_2_16)) (* l_1_2_4 (+ (* (/ 51.0 100.0) _a_0_) (/ 7.0 5.0))))))
 (= (- (- ?x565 ?x566) ?x568) 0.0))))))))))))
(assert
 (let ((?x676 (* (/ 47.0 50.0) l_1_2_9)))
 (let ((?x669 (* l_1_2_17 l_1_2_17)))
 (let ((?x667 (* l_1_2_16 l_1_2_16)))
 (let ((?x658 (* (/ 64.0 25.0) _a_1_)))
 (let ((?x655 (* _a_1_ l_1_2_8)))
 (let ((?x653 (* _a_1_ l_1_2_6)))
 (let ((?x659 (+ (- (- (- (* (/ 8.0 5.0) _a_0_) (* _a_1_ l_1_2_1)) ?x653) ?x655) ?x658)))
 (let ((?x665 (- (+ ?x659 l_1_2_10) (* l_1_2_12 (- (+ (* (/ 7.0 5.0) _a_0_) (* (/ 51.0 100.0) _a_1_)) 1.0)))))
 (let ((?x672 (- (- (- (+ ?x665 l_1_2_13) ?x667) ?x669) (* l_1_2_3 (+ (* _a_0_ _a_0_) (* 2.0 _a_1_))))))
 (let ((?x674 (- ?x672 (* l_1_2_4 (- (+ (* (/ 7.0 5.0) _a_0_) (* (/ 51.0 100.0) _a_1_)) 1.0)))))
 (= (- (+ ?x674 l_1_2_5) ?x676) 0.0))))))))))))
(assert
 (let ((?x771 (- (- (* (* (* (- 2.0) _a_0_) _a_1_) l_1_2_3) (* (/ 128.0 25.0) _a_1_)) (* l_1_2_12 (+ (- _a_0_) (* (/ 7.0 5.0) _a_1_))))))
 (let ((?x775 (+ (- ?x771 (* l_1_2_4 (+ (- _a_0_) (* (/ 7.0 5.0) _a_1_)))) (* (/ 14.0 5.0) l_1_2_9))))
 (= ?x775 0.0))))
(assert
 (let ((?x658 (* (/ 64.0 25.0) _a_1_)))
 (let ((?x826 (- (+ (+ (* _a_1_ l_1_2_12) (* _a_1_ l_1_2_4)) ?x658) (* (* l_1_2_3 _a_1_) _a_1_))))
 (= (- ?x826 l_1_2_9) 0.0))))
(assert
 (let ((?x861 (* (/ 2601.0 10000.0) l_1_2_9)))
 (let ((?x854 (* (/ 51.0 100.0) l_1_2_5)))
 (let ((?x852 (* (/ 51.0 100.0) l_1_2_4)))
 (let ((?x847 (* l_1_2_15 l_1_2_15)))
 (let ((?x844 (* (/ 51.0 100.0) l_1_2_13)))
 (let ((?x842 (* (/ 51.0 100.0) l_1_2_12)))
 (let ((?x843 (- (- (- (* (- 1.0) l_1_2_1) (* (/ 51.0 100.0) l_1_2_10)) l_1_2_11) ?x842)))
 (let ((?x851 (- (- (- (- (- ?x843 ?x844) l_1_2_14) ?x847) l_1_2_2) (* 1.0 l_1_2_3))))
 (let ((?x860 (- (- (- (- (- ?x851 ?x852) ?x854) (* 1.0 l_1_2_6)) l_1_2_7) (* 1.0 l_1_2_8))))
 (= (+ (- ?x860 ?x861) 1.0) 0.0)))))))))))
(assert
 (>= l_1_2_1 0.0))
(assert
 (>= l_1_2_2 0.0))
(assert
 (>= l_1_2_3 0.0))
(assert
 (>= l_1_2_4 0.0))
(assert
 (>= l_1_2_5 0.0))
(assert
 (>= l_1_2_6 0.0))
(assert
 (>= l_1_2_7 0.0))
(assert
 (>= l_1_2_8 0.0))
(assert
 (>= l_1_2_9 0.0))
(assert
 (>= l_1_2_10 0.0))
(assert
 (>= l_1_2_11 0.0))
(assert
 (>= l_1_2_12 0.0))
(assert
 (>= l_1_2_13 0.0))
(assert
 (>= l_1_2_14 0.0))
(assert
 (>= l_1_2_15 0.0))
(assert
 (>= l_1_2_17 0.0))
(check-sat)
(get-model)